p cnf 231 1618
e 23 24 25 26 28 29 30 31 34 35 36 37 41 42 43 44 47 48 49 50 52 53 54 55 59 60 61 62 67 68 69 70 74 75 76 77 82 83 84 85 91 92 93 94 99 100 101 102 106 107 108 109 112 113 114 115 119 120 121 122 127 128 129 130 136 137 138 139 149 151 153 155 160 161 162 163 164 165 166 167 168 169 170 171 172 173 174 175 176 177 178 179 180 181 182 183 184 185 186 187 188 189 190 191 192 193 194 195 196 197 198 199 200 201 202 203 204 205 206 207 208 209 210 211 212 213 214 215 0
a 224 225 226 227 0
e 1 2 3 4 5 6 7 8 9 10 11 12 13 14 15 16 17 18 19 20 21 22 27 32 33 38 39 40 45 46 51 56 57 58 63 64 65 66 71 72 73 78 79 80 81 86 87 88 89 90 95 96 97 98 103 104 105 110 111 116 117 118 123 124 125 126 131 132 133 134 135 140 141 142 143 144 145 146 147 148 150 152 154 156 157 158 159 216 217 218 219 220 221 222 223 228 229 230 231 0
-227 -226 -224 218 225 0
-227 -226 -224 217 225 0
-227 -226 -224 222 225 0
-227 -226 -224 225 231 0
-226 -224 219 225 227 0
-226 -224 225 227 228 0
-226 -224 222 225 227 0
-226 -224 223 225 227 0
-227 -226 224 225 230 0
-227 -226 224 225 231 0
-227 -226 224 225 228 0
-227 -226 222 224 225 0
-227 -226 223 224 225 0
-226 216 224 225 227 0
-226 218 224 225 227 0
-226 224 225 227 230 0
-226 221 224 225 227 0
-227 -225 -224 226 229 0
-227 -225 -224 219 226 0
-227 -225 -224 220 226 0
-227 -225 -224 221 226 0
-225 -224 217 226 227 0
-225 -224 216 226 227 0
-225 -224 220 226 227 0
-225 -224 223 226 227 0
-227 -225 224 226 230 0
-227 -225 221 224 226 0
-227 -225 216 224 226 0
-227 -225 220 224 226 0
-227 -225 223 224 226 0
-225 224 226 227 229 0
-225 224 226 227 230 0
-225 224 226 227 231 0
-225 220 224 226 227 0
-225 221 224 226 227 0
-227 -224 217 225 226 0
-227 -224 222 225 226 0
-227 -224 225 226 231 0
-227 -224 220 225 226 0
-227 -224 223 225 226 0
-224 218 225 226 227 0
-224 225 226 227 230 0
-224 221 225 226 227 0
-224 222 225 226 227 0
-224 225 226 227 231 0
-227 219 224 225 226 0
-227 220 224 225 226 0
-227 221 224 225 226 0
-227 222 224 225 226 0
-227 223 224 225 226 0
224 225 226 227 230 0
224 225 226 227 231 0
220 224 225 226 227 0
221 224 225 226 227 0
222 224 225 226 227 0
223 224 225 226 227 0
-226 -225 224 227 228 0
-226 -225 224 227 229 0
-226 -225 224 227 230 0
-226 -225 224 227 231 0
-10 218 0
-10 230 0
-230 -218 10 0
-11 217 0
-11 222 0
-222 -217 11 0
-12 228 0
-12 222 0
-228 -222 12 0
-13 219 0
-13 220 0
-220 -219 13 0
-14 216 0
-14 220 0
-220 -216 14 0
-9 229 0
-9 230 0
-230 -229 9 0
-16 66 0
-16 134 0
-134 -66 16 0
-17 73 0
-17 148 0
-148 -73 17 0
-18 81 0
-18 148 0
-148 -81 18 0
-19 89 0
-19 146 0
-146 -89 19 0
-20 98 0
-20 146 0
-146 -98 20 0
-15 58 0
-15 134 0
-134 -58 15 0
-1 78 0
-1 159 0
-159 -78 1 0
-2 86 0
-2 159 0
-159 -86 2 0
-3 95 0
-3 157 0
-157 -95 3 0
-4 63 0
-4 140 0
-140 -63 4 0
-5 6 0
-6 5 0
-21 222 0
-21 230 0
-21 218 0
-22 148 0
-22 134 0
-22 66 0
-27 229 0
-27 220 0
-27 230 0
-32 230 0
-32 228 0
-32 222 0
-33 134 0
-33 81 0
-33 148 0
-38 220 0
-38 217 0
-38 222 0
-39 146 0
-39 73 0
-39 148 0
-40 157 0
-40 78 0
-40 159 0
-45 220 0
-45 216 0
-45 230 0
-46 146 0
-46 98 0
-46 134 0
-51 220 0
-51 219 0
-51 222 0
-56 229 0
-56 230 0
-57 58 0
-57 134 0
-64 230 0
-64 218 0
-65 134 0
-65 66 0
-71 217 0
-71 222 0
-72 73 0
-72 148 0
-79 228 0
-79 222 0
-80 81 0
-80 148 0
-87 219 0
-87 220 0
-88 89 0
-88 146 0
-90 95 0
-90 157 0
-96 216 0
-96 220 0
-97 98 0
-97 146 0
-103 230 0
-103 223 0
-103 222 0
-104 134 0
-104 111 0
-104 148 0
-105 140 0
-105 116 0
-105 159 0
-110 220 0
-110 223 0
-110 230 0
-117 230 0
-117 221 0
-117 222 0
-118 134 0
-118 125 0
-118 148 0
-123 220 0
-123 221 0
-123 222 0
-124 146 0
-124 125 0
-124 148 0
-126 157 0
-126 131 0
-126 159 0
-132 220 0
-132 231 0
-132 230 0
-133 146 0
-133 147 0
-133 134 0
-135 157 0
-135 158 0
-135 140 0
-141 220 0
-141 231 0
-141 222 0
-21 146 0
-66 -21 0
-148 -21 0
-21 58 0
-22 157 0
-159 -22 0
-22 63 0
-27 148 0
-58 -27 0
-146 -27 0
-27 66 0
-32 73 0
-134 -32 0
-81 -32 0
-32 146 0
-33 78 0
-140 -33 0
-86 -33 0
-33 157 0
-38 81 0
-146 -38 0
-73 -38 0
-38 134 0
-39 86 0
-157 -39 0
-78 -39 0
-39 140 0
-40 6 0
-45 89 0
-134 -45 0
-98 -45 0
-45 148 0
-46 95 0
-140 -46 0
-46 159 0
-51 98 0
-148 -51 0
-89 -51 0
-51 134 0
-56 111 0
-58 -56 0
-56 148 0
-57 116 0
-63 -57 0
-57 159 0
-64 111 0
-66 -64 0
-64 146 0
-65 116 0
-65 157 0
-71 125 0
-73 -71 0
-71 134 0
-72 131 0
-78 -72 0
-72 140 0
-79 125 0
-81 -79 0
-79 146 0
-80 131 0
-86 -80 0
-80 157 0
-87 147 0
-89 -87 0
-87 134 0
-88 158 0
-95 -88 0
-88 140 0
-90 8 0
-90 -7 0
-90 6 0
-96 147 0
-98 -96 0
-96 148 0
-97 158 0
-97 159 0
-148 -103 0
-111 -103 0
-103 58 0
-159 -104 0
-116 -104 0
-104 63 0
-146 -110 0
-111 -110 0
-110 66 0
-134 -117 0
-125 -117 0
-117 73 0
-140 -118 0
-131 -118 0
-118 78 0
-146 -123 0
-125 -123 0
-123 81 0
-157 -124 0
-131 -124 0
-124 86 0
-134 -132 0
-147 -132 0
-132 89 0
-140 -133 0
-158 -133 0
-133 95 0
-135 -6 0
-135 -8 0
-135 7 0
-148 -141 0
-147 -141 0
-141 98 0
-66 27 110 218 0
-218 21 64 66 0
-66 22 65 0
-148 27 45 56 96 222 0
-159 46 57 97 148 0
-222 21 51 103 141 148 0
-148 22 104 159 0
-159 105 0
-134 38 51 71 87 230 0
-140 39 72 88 134 0
-6 40 90 140 0
-230 32 45 117 132 134 0
-134 33 46 118 133 140 0
-140 6 135 0
-58 21 103 229 0
-63 22 58 104 0
63 105 0
-229 27 56 58 0
-58 57 63 0
-146 21 32 64 79 220 0
-157 22 33 65 80 146 0
-220 27 38 110 123 146 0
-146 39 124 157 0
-157 40 126 0
-81 38 123 228 0
-86 39 81 124 0
40 86 126 0
-228 32 79 81 0
-81 33 80 86 0
-73 32 117 217 0
-78 33 73 118 0
-217 38 71 73 0
-73 39 72 78 0
-78 40 0
-98 51 141 216 0
-216 45 96 98 0
-98 46 97 0
-89 45 132 219 0
-95 46 89 133 0
-7 95 135 0
-219 51 87 89 0
-89 88 95 0
-95 7 90 0
-111 56 64 223 0
-116 57 65 111 0
-223 103 110 111 0
-111 104 116 0
-116 105 0
-125 71 79 221 0
-131 72 80 125 0
-221 117 123 125 0
-125 118 124 131 0
-131 126 0
-147 87 96 231 0
-158 88 97 147 0
-8 90 158 0
-231 132 141 147 0
-147 133 158 0
-158 8 135 0
-66 -58 0
-146 -66 0
-81 -66 0
-89 -66 0
-111 -66 0
-148 -58 0
-159 -63 0
-148 -98 0
-134 -73 0
-140 -78 0
-134 -89 0
-140 -95 0
-7 -6 0
-73 -58 0
-78 -63 0
-98 -58 0
-111 -58 0
-116 -63 0
-146 -81 0
-157 -86 0
-81 -73 0
-86 -78 0
-98 -81 0
-125 -81 0
-131 -86 0
-89 -73 0
-95 -78 0
-125 -73 0
-131 -78 0
-98 -89 0
-147 -98 0
-147 -89 0
-158 -95 0
-8 -7 0
-27 -21 0
-32 -21 0
-33 -22 0
-38 -21 0
-39 -22 0
-45 -21 0
-46 -22 0
-51 -21 0
-56 -21 0
-57 -22 0
-64 -21 0
-65 -22 0
-71 -21 0
-72 -22 0
-79 -21 0
-80 -22 0
-87 -21 0
-88 -22 0
-96 -21 0
-97 -22 0
-103 -21 0
-104 -22 0
-110 -21 0
-117 -21 0
-118 -22 0
-123 -21 0
-124 -22 0
-132 -21 0
-133 -22 0
-141 -21 0
-32 -27 0
-38 -27 0
-45 -27 0
-51 -27 0
-56 -27 0
-64 -27 0
-71 -27 0
-79 -27 0
-87 -27 0
-96 -27 0
-103 -27 0
-110 -27 0
-117 -27 0
-123 -27 0
-132 -27 0
-141 -27 0
-38 -32 0
-39 -33 0
-45 -32 0
-46 -33 0
-51 -32 0
-56 -32 0
-57 -33 0
-64 -32 0
-65 -33 0
-71 -32 0
-72 -33 0
-79 -32 0
-80 -33 0
-87 -32 0
-88 -33 0
-96 -32 0
-97 -33 0
-103 -32 0
-104 -33 0
-110 -32 0
-117 -32 0
-118 -33 0
-123 -32 0
-124 -33 0
-132 -32 0
-133 -33 0
-141 -32 0
-45 -38 0
-46 -39 0
-51 -38 0
-56 -38 0
-57 -39 0
-64 -38 0
-65 -39 0
-71 -38 0
-72 -39 0
-79 -38 0
-80 -39 0
-87 -38 0
-88 -39 0
-90 -40 0
-96 -38 0
-97 -39 0
-103 -38 0
-104 -39 0
-105 -40 0
-110 -38 0
-117 -38 0
-118 -39 0
-123 -38 0
-124 -39 0
-126 -40 0
-132 -38 0
-133 -39 0
-135 -40 0
-141 -38 0
-51 -45 0
-56 -45 0
-57 -46 0
-64 -45 0
-65 -46 0
-71 -45 0
-72 -46 0
-79 -45 0
-80 -46 0
-87 -45 0
-88 -46 0
-96 -45 0
-97 -46 0
-103 -45 0
-104 -46 0
-110 -45 0
-117 -45 0
-118 -46 0
-123 -45 0
-124 -46 0
-132 -45 0
-133 -46 0
-141 -45 0
-56 -51 0
-64 -51 0
-71 -51 0
-79 -51 0
-87 -51 0
-96 -51 0
-103 -51 0
-110 -51 0
-117 -51 0
-123 -51 0
-132 -51 0
-141 -51 0
-71 -56 0
-72 -57 0
-79 -56 0
-80 -57 0
-87 -56 0
-88 -57 0
-103 -56 0
-104 -57 0
-110 -56 0
-117 -56 0
-118 -57 0
-123 -56 0
-124 -57 0
-132 -56 0
-133 -57 0
-141 -56 0
-71 -64 0
-72 -65 0
-87 -64 0
-88 -65 0
-96 -64 0
-97 -65 0
-103 -64 0
-104 -65 0
-110 -64 0
-117 -64 0
-118 -65 0
-123 -64 0
-124 -65 0
-132 -64 0
-133 -65 0
-141 -64 0
-96 -71 0
-97 -72 0
-103 -71 0
-104 -72 0
-110 -71 0
-117 -71 0
-118 -72 0
-123 -71 0
-124 -72 0
-132 -71 0
-133 -72 0
-141 -71 0
-87 -79 0
-88 -80 0
-96 -79 0
-97 -80 0
-103 -79 0
-104 -80 0
-110 -79 0
-117 -79 0
-118 -80 0
-123 -79 0
-124 -80 0
-132 -79 0
-133 -80 0
-141 -79 0
-103 -87 0
-104 -88 0
-105 -90 0
-110 -87 0
-117 -87 0
-118 -88 0
-123 -87 0
-124 -88 0
-126 -90 0
-132 -87 0
-133 -88 0
-135 -90 0
-141 -87 0
-103 -96 0
-104 -97 0
-110 -96 0
-117 -96 0
-118 -97 0
-123 -96 0
-124 -97 0
-132 -96 0
-133 -97 0
-141 -96 0
-110 -103 0
-117 -103 0
-118 -104 0
-123 -103 0
-124 -104 0
-126 -105 0
-132 -103 0
-133 -104 0
-135 -105 0
-141 -103 0
-117 -110 0
-123 -110 0
-132 -110 0
-141 -110 0
-123 -117 0
-124 -118 0
-132 -117 0
-133 -118 0
-141 -117 0
-132 -123 0
-133 -124 0
-135 -126 0
-141 -123 0
-141 -132 0
-145 -142 0
-145 -143 0
-143 -142 0
-145 -144 0
-144 -142 0
-144 -143 0
-156 -150 0
-156 -152 0
-152 -150 0
-156 -154 0
-154 -150 0
-154 -152 0
-163 -160 0
-163 -161 0
-161 -160 0
-163 -162 0
-162 -160 0
-162 -161 0
-167 -164 0
-167 -165 0
-165 -164 0
-167 -166 0
-166 -164 0
-166 -165 0
-171 -168 0
-171 -169 0
-169 -168 0
-171 -170 0
-170 -168 0
-170 -169 0
-175 -172 0
-175 -173 0
-173 -172 0
-175 -174 0
-174 -172 0
-174 -173 0
-179 -176 0
-179 -177 0
-177 -176 0
-179 -178 0
-178 -176 0
-178 -177 0
-183 -180 0
-183 -181 0
-181 -180 0
-183 -182 0
-182 -180 0
-182 -181 0
-187 -184 0
-187 -185 0
-185 -184 0
-187 -186 0
-186 -184 0
-186 -185 0
-191 -188 0
-191 -189 0
-189 -188 0
-191 -190 0
-190 -188 0
-190 -189 0
-197 -163 -9 145 0
-197 -160 -9 142 0
-197 -161 -9 143 0
-197 -162 -9 144 0
-192 -163 -10 145 0
-192 -160 -10 142 0
-192 -161 -10 143 0
-192 -162 -10 144 0
-193 -163 -11 145 0
-193 -160 -11 142 0
-193 -161 -11 143 0
-193 -162 -11 144 0
-194 -163 -12 145 0
-194 -160 -12 142 0
-194 -161 -12 143 0
-194 -162 -12 144 0
-195 -163 -13 145 0
-195 -160 -13 142 0
-195 -161 -13 143 0
-195 -162 -13 144 0
-196 -163 -14 145 0
-196 -160 -14 142 0
-196 -161 -14 143 0
-196 -162 -14 144 0
-197 -163 -145 -15 156 0
-197 -160 -145 -15 150 0
-197 -161 -145 -15 152 0
-197 -162 -145 -15 154 0
-192 -163 -145 -16 156 0
-192 -160 -145 -16 150 0
-192 -161 -145 -16 152 0
-192 -162 -145 -16 154 0
-193 -163 -145 -17 156 0
-193 -160 -145 -17 150 0
-193 -161 -145 -17 152 0
-193 -162 -145 -17 154 0
-194 -163 -145 -18 156 0
-194 -160 -145 -18 150 0
-194 -161 -145 -18 152 0
-194 -162 -145 -18 154 0
-195 -163 -145 -19 156 0
-195 -160 -145 -19 150 0
-195 -161 -145 -19 152 0
-195 -162 -145 -19 154 0
-196 -163 -145 -20 156 0
-196 -160 -145 -20 150 0
-196 -161 -145 -20 152 0
-196 -162 -145 -20 154 0
-203 -167 -142 -15 156 0
-203 -164 -142 -15 150 0
-203 -165 -142 -15 152 0
-203 -166 -142 -15 154 0
-198 -167 -142 -16 156 0
-198 -164 -142 -16 150 0
-198 -165 -142 -16 152 0
-198 -166 -142 -16 154 0
-199 -167 -142 -17 156 0
-199 -164 -142 -17 150 0
-199 -165 -142 -17 152 0
-199 -166 -142 -17 154 0
-200 -167 -142 -18 156 0
-200 -164 -142 -18 150 0
-200 -165 -142 -18 152 0
-200 -166 -142 -18 154 0
-201 -167 -142 -19 156 0
-201 -164 -142 -19 150 0
-201 -165 -142 -19 152 0
-201 -166 -142 -19 154 0
-202 -167 -142 -20 156 0
-202 -164 -142 -20 150 0
-202 -165 -142 -20 152 0
-202 -166 -142 -20 154 0
-209 -171 -143 -15 156 0
-209 -168 -143 -15 150 0
-209 -169 -143 -15 152 0
-209 -170 -143 -15 154 0
-204 -171 -143 -16 156 0
-204 -168 -143 -16 150 0
-204 -169 -143 -16 152 0
-204 -170 -143 -16 154 0
-205 -171 -143 -17 156 0
-205 -168 -143 -17 150 0
-205 -169 -143 -17 152 0
-205 -170 -143 -17 154 0
-206 -171 -143 -18 156 0
-206 -168 -143 -18 150 0
-206 -169 -143 -18 152 0
-206 -170 -143 -18 154 0
-207 -171 -143 -19 156 0
-207 -168 -143 -19 150 0
-207 -169 -143 -19 152 0
-207 -170 -143 -19 154 0
-208 -171 -143 -20 156 0
-208 -168 -143 -20 150 0
-208 -169 -143 -20 152 0
-208 -170 -143 -20 154 0
-215 -175 -144 -15 156 0
-215 -172 -144 -15 150 0
-215 -173 -144 -15 152 0
-215 -174 -144 -15 154 0
-210 -175 -144 -16 156 0
-210 -172 -144 -16 150 0
-210 -173 -144 -16 152 0
-210 -174 -144 -16 154 0
-211 -175 -144 -17 156 0
-211 -172 -144 -17 150 0
-211 -173 -144 -17 152 0
-211 -174 -144 -17 154 0
-212 -175 -144 -18 156 0
-212 -172 -144 -18 150 0
-212 -173 -144 -18 152 0
-212 -174 -144 -18 154 0
-213 -175 -144 -19 156 0
-213 -172 -144 -19 150 0
-213 -173 -144 -19 152 0
-213 -174 -144 -19 154 0
-214 -175 -144 -20 156 0
-214 -172 -144 -20 150 0
-214 -173 -144 -20 152 0
-214 -174 -144 -20 154 0
-197 -179 9 145 0
-197 -176 9 142 0
-197 -177 9 143 0
-197 -178 9 144 0
-192 -179 10 145 0
-192 -176 10 142 0
-192 -177 10 143 0
-192 -178 10 144 0
-193 -179 11 145 0
-193 -176 11 142 0
-193 -177 11 143 0
-193 -178 11 144 0
-194 -179 12 145 0
-194 -176 12 142 0
-194 -177 12 143 0
-194 -178 12 144 0
-195 -179 13 145 0
-195 -176 13 142 0
-195 -177 13 143 0
-195 -178 13 144 0
-196 -179 14 145 0
-196 -176 14 142 0
-196 -177 14 143 0
-196 -178 14 144 0
-197 -179 -145 15 156 0
-197 -176 -145 15 150 0
-197 -177 -145 15 152 0
-197 -178 -145 15 154 0
-192 -179 -145 16 156 0
-192 -176 -145 16 150 0
-192 -177 -145 16 152 0
-192 -178 -145 16 154 0
-193 -179 -145 17 156 0
-193 -176 -145 17 150 0
-193 -177 -145 17 152 0
-193 -178 -145 17 154 0
-194 -179 -145 18 156 0
-194 -176 -145 18 150 0
-194 -177 -145 18 152 0
-194 -178 -145 18 154 0
-195 -179 -145 19 156 0
-195 -176 -145 19 150 0
-195 -177 -145 19 152 0
-195 -178 -145 19 154 0
-196 -179 -145 20 156 0
-196 -176 -145 20 150 0
-196 -177 -145 20 152 0
-196 -178 -145 20 154 0
-203 -183 -142 15 156 0
-203 -180 -142 15 150 0
-203 -181 -142 15 152 0
-203 -182 -142 15 154 0
-198 -183 -142 16 156 0
-198 -180 -142 16 150 0
-198 -181 -142 16 152 0
-198 -182 -142 16 154 0
-199 -183 -142 17 156 0
-199 -180 -142 17 150 0
-199 -181 -142 17 152 0
-199 -182 -142 17 154 0
-200 -183 -142 18 156 0
-200 -180 -142 18 150 0
-200 -181 -142 18 152 0
-200 -182 -142 18 154 0
-201 -183 -142 19 156 0
-201 -180 -142 19 150 0
-201 -181 -142 19 152 0
-201 -182 -142 19 154 0
-202 -183 -142 20 156 0
-202 -180 -142 20 150 0
-202 -181 -142 20 152 0
-202 -182 -142 20 154 0
-209 -187 -143 15 156 0
-209 -184 -143 15 150 0
-209 -185 -143 15 152 0
-209 -186 -143 15 154 0
-204 -187 -143 16 156 0
-204 -184 -143 16 150 0
-204 -185 -143 16 152 0
-204 -186 -143 16 154 0
-205 -187 -143 17 156 0
-205 -184 -143 17 150 0
-205 -185 -143 17 152 0
-205 -186 -143 17 154 0
-206 -187 -143 18 156 0
-206 -184 -143 18 150 0
-206 -185 -143 18 152 0
-206 -186 -143 18 154 0
-207 -187 -143 19 156 0
-207 -184 -143 19 150 0
-207 -185 -143 19 152 0
-207 -186 -143 19 154 0
-208 -187 -143 20 156 0
-208 -184 -143 20 150 0
-208 -185 -143 20 152 0
-208 -186 -143 20 154 0
-215 -191 -144 15 156 0
-215 -188 -144 15 150 0
-215 -189 -144 15 152 0
-215 -190 -144 15 154 0
-210 -191 -144 16 156 0
-210 -188 -144 16 150 0
-210 -189 -144 16 152 0
-210 -190 -144 16 154 0
-211 -191 -144 17 156 0
-211 -188 -144 17 150 0
-211 -189 -144 17 152 0
-211 -190 -144 17 154 0
-212 -191 -144 18 156 0
-212 -188 -144 18 150 0
-212 -189 -144 18 152 0
-212 -190 -144 18 154 0
-213 -191 -144 19 156 0
-213 -188 -144 19 150 0
-213 -189 -144 19 152 0
-213 -190 -144 19 154 0
-214 -191 -144 20 156 0
-214 -188 -144 20 150 0
-214 -189 -144 20 152 0
-214 -190 -144 20 154 0
-197 -192 0
-197 -193 0
-193 -192 0
-197 -194 0
-194 -192 0
-194 -193 0
-197 -195 0
-195 -192 0
-195 -193 0
-195 -194 0
-197 -196 0
-196 -192 0
-196 -193 0
-196 -194 0
-196 -195 0
-203 -198 0
-203 -199 0
-199 -198 0
-203 -200 0
-200 -198 0
-200 -199 0
-203 -201 0
-201 -198 0
-201 -199 0
-201 -200 0
-203 -202 0
-202 -198 0
-202 -199 0
-202 -200 0
-202 -201 0
-209 -204 0
-209 -205 0
-205 -204 0
-209 -206 0
-206 -204 0
-206 -205 0
-209 -207 0
-207 -204 0
-207 -205 0
-207 -206 0
-209 -208 0
-208 -204 0
-208 -205 0
-208 -206 0
-208 -207 0
-215 -210 0
-215 -211 0
-211 -210 0
-215 -212 0
-212 -210 0
-212 -211 0
-215 -213 0
-213 -210 0
-213 -211 0
-213 -212 0
-215 -214 0
-214 -210 0
-214 -211 0
-214 -212 0
-214 -213 0
-230 -222 -218 -26 21 0
-148 -145 -134 -66 -26 22 0
-148 -142 -134 -66 -23 22 0
-148 -143 -134 -66 -24 22 0
-148 -144 -134 -66 -25 22 0
-230 -229 -220 -31 27 0
-146 -145 -134 -58 -31 0
-146 -142 -134 -58 -28 0
-146 -143 -134 -58 -29 0
-146 -144 -134 -58 -30 0
-157 -156 -140 -63 -31 0
-157 -150 -140 -63 -28 0
-157 -152 -140 -63 -29 0
-157 -154 -140 -63 -30 0
-230 -228 -222 -37 32 0
-148 -145 -134 -81 -37 33 0
-148 -142 -134 -81 -34 33 0
-148 -143 -134 -81 -35 33 0
-148 -144 -134 -81 -36 33 0
-159 -156 -140 -86 -37 0
-159 -150 -140 -86 -34 0
-159 -152 -140 -86 -35 0
-159 -154 -140 -86 -36 0
-222 -220 -217 -44 38 0
-148 -146 -145 -73 -44 39 0
-148 -146 -142 -73 -41 39 0
-148 -146 -143 -73 -42 39 0
-148 -146 -144 -73 -43 39 0
-159 -157 -156 -78 -44 40 0
-159 -157 -150 -78 -41 40 0
-159 -157 -152 -78 -42 40 0
-159 -157 -154 -78 -43 40 0
-230 -220 -216 -50 45 0
-146 -145 -134 -98 -50 46 0
-146 -142 -134 -98 -47 46 0
-146 -143 -134 -98 -48 46 0
-146 -144 -134 -98 -49 46 0
-222 -220 -219 -55 51 0
-148 -146 -145 -89 -55 0
-148 -146 -142 -89 -52 0
-148 -146 -143 -89 -53 0
-148 -146 -144 -89 -54 0
-159 -157 -156 -95 -55 0
-159 -157 -150 -95 -52 0
-159 -157 -152 -95 -53 0
-159 -157 -154 -95 -54 0
-230 -229 -62 56 0
-145 -134 -62 -58 57 0
-142 -134 -59 -58 57 0
-143 -134 -60 -58 57 0
-144 -134 -61 -58 57 0
-156 -140 -63 -62 0
-150 -140 -63 -59 0
-152 -140 -63 -60 0
-154 -140 -63 -61 0
-230 -218 -70 64 0
-145 -134 -70 -66 65 0
-142 -134 -67 -66 65 0
-143 -134 -68 -66 65 0
-144 -134 -69 -66 65 0
-222 -217 -77 71 0
-148 -145 -77 -73 72 0
-148 -142 -74 -73 72 0
-148 -143 -75 -73 72 0
-148 -144 -76 -73 72 0
-159 -156 -78 -77 0
-159 -150 -78 -74 0
-159 -152 -78 -75 0
-159 -154 -78 -76 0
-228 -222 -85 79 0
-148 -145 -85 -81 80 0
-148 -142 -82 -81 80 0
-148 -143 -83 -81 80 0
-148 -144 -84 -81 80 0
-159 -156 -86 -85 0
-159 -150 -86 -82 0
-159 -152 -86 -83 0
-159 -154 -86 -84 0
-220 -219 -94 87 0
-146 -145 -94 -89 88 0
-146 -142 -91 -89 88 0
-146 -143 -92 -89 88 0
-146 -144 -93 -89 88 0
-157 -156 -95 -94 90 0
-157 -150 -95 -91 90 0
-157 -152 -95 -92 90 0
-157 -154 -95 -93 90 0
-220 -216 -102 96 0
-146 -145 -102 -98 97 0
-146 -142 -99 -98 97 0
-146 -143 -100 -98 97 0
-146 -144 -101 -98 97 0
-230 -223 -222 -109 103 0
-148 -145 -134 -111 -109 104 0
-148 -142 -134 -111 -106 104 0
-148 -143 -134 -111 -107 104 0
-148 -144 -134 -111 -108 104 0
-159 -156 -140 -116 -109 105 0
-159 -150 -140 -116 -106 105 0
-159 -152 -140 -116 -107 105 0
-159 -154 -140 -116 -108 105 0
-230 -223 -220 -115 110 0
-146 -145 -134 -115 -111 0
-146 -142 -134 -112 -111 0
-146 -143 -134 -113 -111 0
-146 -144 -134 -114 -111 0
-157 -156 -140 -116 -115 0
-157 -150 -140 -116 -112 0
-157 -152 -140 -116 -113 0
-157 -154 -140 -116 -114 0
-230 -222 -221 -122 117 0
-148 -145 -134 -125 -122 118 0
-148 -142 -134 -125 -119 118 0
-148 -143 -134 -125 -120 118 0
-148 -144 -134 -125 -121 118 0
-159 -156 -140 -131 -122 0
-159 -150 -140 -131 -119 0
-159 -152 -140 -131 -120 0
-159 -154 -140 -131 -121 0
-222 -221 -220 -130 123 0
-148 -146 -145 -130 -125 124 0
-148 -146 -142 -127 -125 124 0
-148 -146 -143 -128 -125 124 0
-148 -146 -144 -129 -125 124 0
-159 -157 -156 -131 -130 126 0
-159 -157 -150 -131 -127 126 0
-159 -157 -152 -131 -128 126 0
-159 -157 -154 -131 -129 126 0
-231 -230 -220 -139 132 0
-147 -146 -145 -139 -134 133 0
-147 -146 -142 -136 -134 133 0
-147 -146 -143 -137 -134 133 0
-147 -146 -144 -138 -134 133 0
-158 -157 -156 -140 -139 135 0
-158 -157 -150 -140 -136 135 0
-158 -157 -152 -140 -137 135 0
-158 -157 -154 -140 -138 135 0
-231 -222 -220 -155 141 0
-155 -148 -147 -146 -145 0
-149 -148 -147 -146 -142 0
-151 -148 -147 -146 -143 0
-153 -148 -147 -146 -144 0
-159 -158 -157 -156 -155 0
-159 -158 -157 -150 -149 0
-159 -158 -157 -152 -151 0
-159 -158 -157 -154 -153 0
-21 23 24 25 26 0
-21 23 24 26 0
-21 23 25 26 0
-21 23 26 0
-21 24 25 26 0
-21 24 26 0
-21 25 26 0
-21 26 0
-22 23 24 25 26 0
-22 23 24 25 145 0
-22 23 24 26 144 0
-22 23 24 144 145 0
-22 23 25 26 143 0
-22 23 25 143 145 0
-22 23 26 143 144 0
-22 23 143 144 145 0
-22 24 25 26 142 0
-22 24 25 142 145 0
-22 24 26 142 144 0
-22 24 142 144 145 0
-22 25 26 142 143 0
-22 25 142 143 145 0
-22 26 142 143 144 0
-22 142 143 144 145 0
-27 28 29 30 31 0
-27 28 29 31 0
-27 28 30 31 0
-27 28 31 0
-27 29 30 31 0
-27 29 31 0
-27 30 31 0
-27 31 0
-32 34 35 36 37 0
-32 34 35 37 0
-32 34 36 37 0
-32 34 37 0
-32 35 36 37 0
-32 35 37 0
-32 36 37 0
-32 37 0
-33 34 35 36 37 0
-33 34 35 36 145 0
-33 34 35 37 144 0
-33 34 35 144 145 0
-33 34 36 37 143 0
-33 34 36 143 145 0
-33 34 37 143 144 0
-33 34 143 144 145 0
-33 35 36 37 142 0
-33 35 36 142 145 0
-33 35 37 142 144 0
-33 35 142 144 145 0
-33 36 37 142 143 0
-33 36 142 143 145 0
-33 37 142 143 144 0
-33 142 143 144 145 0
-38 41 42 43 44 0
-38 41 42 44 0
-38 41 43 44 0
-38 41 44 0
-38 42 43 44 0
-38 42 44 0
-38 43 44 0
-38 44 0
-39 41 42 43 44 0
-39 41 42 43 145 0
-39 41 42 44 144 0
-39 41 42 144 145 0
-39 41 43 44 143 0
-39 41 43 143 145 0
-39 41 44 143 144 0
-39 41 143 144 145 0
-39 42 43 44 142 0
-39 42 43 142 145 0
-39 42 44 142 144 0
-39 42 142 144 145 0
-39 43 44 142 143 0
-39 43 142 143 145 0
-39 44 142 143 144 0
-39 142 143 144 145 0
-40 41 42 43 44 0
-40 41 42 43 156 0
-40 41 42 44 154 0
-40 41 42 154 156 0
-40 41 43 44 152 0
-40 41 43 152 156 0
-40 41 44 152 154 0
-40 41 152 154 156 0
-40 42 43 44 150 0
-40 42 43 150 156 0
-40 42 44 150 154 0
-40 42 150 154 156 0
-40 43 44 150 152 0
-40 43 150 152 156 0
-40 44 150 152 154 0
-40 150 152 154 156 0
-45 47 48 49 50 0
-45 47 48 50 0
-45 47 49 50 0
-45 47 50 0
-45 48 49 50 0
-45 48 50 0
-45 49 50 0
-45 50 0
-46 47 48 49 50 0
-46 47 48 49 145 0
-46 47 48 50 144 0
-46 47 48 144 145 0
-46 47 49 50 143 0
-46 47 49 143 145 0
-46 47 50 143 144 0
-46 47 143 144 145 0
-46 48 49 50 142 0
-46 48 49 142 145 0
-46 48 50 142 144 0
-46 48 142 144 145 0
-46 49 50 142 143 0
-46 49 142 143 145 0
-46 50 142 143 144 0
-46 142 143 144 145 0
-51 52 53 54 55 0
-51 52 53 55 0
-51 52 54 55 0
-51 52 55 0
-51 53 54 55 0
-51 53 55 0
-51 54 55 0
-51 55 0
-56 59 60 61 62 0
-56 59 60 62 0
-56 59 61 62 0
-56 59 62 0
-56 60 61 62 0
-56 60 62 0
-56 61 62 0
-56 62 0
-57 59 60 61 62 0
-57 59 60 61 145 0
-57 59 60 62 144 0
-57 59 60 144 145 0
-57 59 61 62 143 0
-57 59 61 143 145 0
-57 59 62 143 144 0
-57 59 143 144 145 0
-57 60 61 62 142 0
-57 60 61 142 145 0
-57 60 62 142 144 0
-57 60 142 144 145 0
-57 61 62 142 143 0
-57 61 142 143 145 0
-57 62 142 143 144 0
-57 142 143 144 145 0
-64 67 68 69 70 0
-64 67 68 70 0
-64 67 69 70 0
-64 67 70 0
-64 68 69 70 0
-64 68 70 0
-64 69 70 0
-64 70 0
-65 67 68 69 70 0
-65 67 68 69 145 0
-65 67 68 70 144 0
-65 67 68 144 145 0
-65 67 69 70 143 0
-65 67 69 143 145 0
-65 67 70 143 144 0
-65 67 143 144 145 0
-65 68 69 70 142 0
-65 68 69 142 145 0
-65 68 70 142 144 0
-65 68 142 144 145 0
-65 69 70 142 143 0
-65 69 142 143 145 0
-65 70 142 143 144 0
-65 142 143 144 145 0
-71 74 75 76 77 0
-71 74 75 77 0
-71 74 76 77 0
-71 74 77 0
-71 75 76 77 0
-71 75 77 0
-71 76 77 0
-71 77 0
-72 74 75 76 77 0
-72 74 75 76 145 0
-72 74 75 77 144 0
-72 74 75 144 145 0
-72 74 76 77 143 0
-72 74 76 143 145 0
-72 74 77 143 144 0
-72 74 143 144 145 0
-72 75 76 77 142 0
-72 75 76 142 145 0
-72 75 77 142 144 0
-72 75 142 144 145 0
-72 76 77 142 143 0
-72 76 142 143 145 0
-72 77 142 143 144 0
-72 142 143 144 145 0
-79 82 83 84 85 0
-79 82 83 85 0
-79 82 84 85 0
-79 82 85 0
-79 83 84 85 0
-79 83 85 0
-79 84 85 0
-79 85 0
-80 82 83 84 85 0
-80 82 83 84 145 0
-80 82 83 85 144 0
-80 82 83 144 145 0
-80 82 84 85 143 0
-80 82 84 143 145 0
-80 82 85 143 144 0
-80 82 143 144 145 0
-80 83 84 85 142 0
-80 83 84 142 145 0
-80 83 85 142 144 0
-80 83 142 144 145 0
-80 84 85 142 143 0
-80 84 142 143 145 0
-80 85 142 143 144 0
-80 142 143 144 145 0
-87 91 92 93 94 0
-87 91 92 94 0
-87 91 93 94 0
-87 91 94 0
-87 92 93 94 0
-87 92 94 0
-87 93 94 0
-87 94 0
-88 91 92 93 94 0
-88 91 92 93 145 0
-88 91 92 94 144 0
-88 91 92 144 145 0
-88 91 93 94 143 0
-88 91 93 143 145 0
-88 91 94 143 144 0
-88 91 143 144 145 0
-88 92 93 94 142 0
-88 92 93 142 145 0
-88 92 94 142 144 0
-88 92 142 144 145 0
-88 93 94 142 143 0
-88 93 142 143 145 0
-88 94 142 143 144 0
-88 142 143 144 145 0
-90 91 92 93 94 0
-90 91 92 93 156 0
-90 91 92 94 154 0
-90 91 92 154 156 0
-90 91 93 94 152 0
-90 91 93 152 156 0
-90 91 94 152 154 0
-90 91 152 154 156 0
-90 92 93 94 150 0
-90 92 93 150 156 0
-90 92 94 150 154 0
-90 92 150 154 156 0
-90 93 94 150 152 0
-90 93 150 152 156 0
-90 94 150 152 154 0
-90 150 152 154 156 0
-96 99 100 101 102 0
-96 99 100 102 0
-96 99 101 102 0
-96 99 102 0
-96 100 101 102 0
-96 100 102 0
-96 101 102 0
-96 102 0
-97 99 100 101 102 0
-97 99 100 101 145 0
-97 99 100 102 144 0
-97 99 100 144 145 0
-97 99 101 102 143 0
-97 99 101 143 145 0
-97 99 102 143 144 0
-97 99 143 144 145 0
-97 100 101 102 142 0
-97 100 101 142 145 0
-97 100 102 142 144 0
-97 100 142 144 145 0
-97 101 102 142 143 0
-97 101 142 143 145 0
-97 102 142 143 144 0
-97 142 143 144 145 0
-103 106 107 108 109 0
-103 106 107 109 0
-103 106 108 109 0
-103 106 109 0
-103 107 108 109 0
-103 107 109 0
-103 108 109 0
-103 109 0
-104 106 107 108 109 0
-104 106 107 108 145 0
-104 106 107 109 144 0
-104 106 107 144 145 0
-104 106 108 109 143 0
-104 106 108 143 145 0
-104 106 109 143 144 0
-104 106 143 144 145 0
-104 107 108 109 142 0
-104 107 108 142 145 0
-104 107 109 142 144 0
-104 107 142 144 145 0
-104 108 109 142 143 0
-104 108 142 143 145 0
-104 109 142 143 144 0
-104 142 143 144 145 0
-105 106 107 108 109 0
-105 106 107 108 156 0
-105 106 107 109 154 0
-105 106 107 154 156 0
-105 106 108 109 152 0
-105 106 108 152 156 0
-105 106 109 152 154 0
-105 106 152 154 156 0
-105 107 108 109 150 0
-105 107 108 150 156 0
-105 107 109 150 154 0
-105 107 150 154 156 0
-105 108 109 150 152 0
-105 108 150 152 156 0
-105 109 150 152 154 0
-105 150 152 154 156 0
-110 112 113 114 115 0
-110 112 113 115 0
-110 112 114 115 0
-110 112 115 0
-110 113 114 115 0
-110 113 115 0
-110 114 115 0
-110 115 0
-117 119 120 121 122 0
-117 119 120 122 0
-117 119 121 122 0
-117 119 122 0
-117 120 121 122 0
-117 120 122 0
-117 121 122 0
-117 122 0
-118 119 120 121 122 0
-118 119 120 121 145 0
-118 119 120 122 144 0
-118 119 120 144 145 0
-118 119 121 122 143 0
-118 119 121 143 145 0
-118 119 122 143 144 0
-118 119 143 144 145 0
-118 120 121 122 142 0
-118 120 121 142 145 0
-118 120 122 142 144 0
-118 120 142 144 145 0
-118 121 122 142 143 0
-118 121 142 143 145 0
-118 122 142 143 144 0
-118 142 143 144 145 0
-123 127 128 129 130 0
-123 127 128 130 0
-123 127 129 130 0
-123 127 130 0
-123 128 129 130 0
-123 128 130 0
-123 129 130 0
-123 130 0
-124 127 128 129 130 0
-124 127 128 129 145 0
-124 127 128 130 144 0
-124 127 128 144 145 0
-124 127 129 130 143 0
-124 127 129 143 145 0
-124 127 130 143 144 0
-124 127 143 144 145 0
-124 128 129 130 142 0
-124 128 129 142 145 0
-124 128 130 142 144 0
-124 128 142 144 145 0
-124 129 130 142 143 0
-124 129 142 143 145 0
-124 130 142 143 144 0
-124 142 143 144 145 0
-126 127 128 129 130 0
-126 127 128 129 156 0
-126 127 128 130 154 0
-126 127 128 154 156 0
-126 127 129 130 152 0
-126 127 129 152 156 0
-126 127 130 152 154 0
-126 127 152 154 156 0
-126 128 129 130 150 0
-126 128 129 150 156 0
-126 128 130 150 154 0
-126 128 150 154 156 0
-126 129 130 150 152 0
-126 129 150 152 156 0
-126 130 150 152 154 0
-126 150 152 154 156 0
-132 136 137 138 139 0
-132 136 137 139 0
-132 136 138 139 0
-132 136 139 0
-132 137 138 139 0
-132 137 139 0
-132 138 139 0
-132 139 0
-133 136 137 138 139 0
-133 136 137 138 145 0
-133 136 137 139 144 0
-133 136 137 144 145 0
-133 136 138 139 143 0
-133 136 138 143 145 0
-133 136 139 143 144 0
-133 136 143 144 145 0
-133 137 138 139 142 0
-133 137 138 142 145 0
-133 137 139 142 144 0
-133 137 142 144 145 0
-133 138 139 142 143 0
-133 138 142 143 145 0
-133 139 142 143 144 0
-133 142 143 144 145 0
-135 136 137 138 139 0
-135 136 137 138 156 0
-135 136 137 139 154 0
-135 136 137 154 156 0
-135 136 138 139 152 0
-135 136 138 152 156 0
-135 136 139 152 154 0
-135 136 152 154 156 0
-135 137 138 139 150 0
-135 137 138 150 156 0
-135 137 139 150 154 0
-135 137 150 154 156 0
-135 138 139 150 152 0
-135 138 150 152 156 0
-135 139 150 152 154 0
-135 150 152 154 156 0
-141 149 151 153 155 0
-141 149 151 155 0
-141 149 153 155 0
-141 149 155 0
-141 151 153 155 0
-141 151 155 0
-141 153 155 0
-141 155 0
160 161 162 163 0
164 165 166 167 0
168 169 170 171 0
172 173 174 175 0
176 177 178 179 0
180 181 182 183 0
184 185 186 187 0
188 189 190 191 0
192 193 194 195 196 197 0
198 199 200 201 202 203 0
204 205 206 207 208 209 0
210 211 212 213 214 215 0
